c Horn-SAT control (sanity-only)
c Generated by mu_sat_difficulty_scale.py
p cnf 20 40
-4 20 -12 0
8 -10 -11 0
-18 11 -15 0
-9 8 -6 0
-18 -17 16 0
12 -10 -4 0
8 -9 -14 0
-10 14 -5 0
-9 11 -19 0
-11 12 -16 0
-2 12 -20 0
20 -8 -1 0
-8 10 -5 0
10 -5 -17 0
8 -3 -19 0
-12 -1 3 0
18 -15 -6 0
-18 -1 5 0
-3 -7 4 0
-5 11 -3 0
-16 1 -4 0
-4 -16 19 0
3 -6 -12 0
7 -16 -17 0
16 -2 -20 0
-6 -17 2 0
8 -15 -14 0
-17 7 -8 0
-12 -3 19 0
-1 -9 18 0
1 -14 -16 0
1 -15 -7 0
17 -15 -10 0
-16 8 -4 0
15 -10 -8 0
-20 13 -10 0
5 -12 -4 0
4 -20 -14 0
16 -20 -13 0
-16 -7 18 0
